// Dezyne --- Dezyne command line tools
//
// Copyright © 2014, 2015 Rob Wieringa <Rob.Wieringa@verum.com>
//
// This file is part of Dezyne.
//
// Dezyne is free software: you can redistribute it and/or modify it
// under the terms of the GNU Affero General Public License as
// published by the Free Software Foundation, either version 3 of the
// License, or (at your option) any later version.
//
// Dezyne is distributed in the hope that it will be useful, but
// WITHOUT ANY WARRANTY; without even the implied warranty of
// MERCHANTABILITY or FITNESS FOR A PARTICULAR PURPOSE.  See the GNU
// Affero General Public License for more details.
//
// You should have received a copy of the GNU Affero General Public
// License along with Dezyne.  If not, see <http://www.gnu.org/licenses/>.
//
// Commentary:
//
// Code:

interface ienum_collision
{
  enum Retval1 {OK,NOK};
  in Retval1 foo();

  enum Retval2 {OK,NOK};
  in Retval2 bar();

  behaviour
  {
    on foo: reply(Retval1.OK);
    on bar: reply(Retval2.NOK);
  }
}

component enum_collision
{
  provides ienum_collision i;

  behaviour
  {
    on i.foo(): reply(ienum_collision.Retval1.OK);
    on i.bar(): reply(ienum_collision.Retval2.NOK);
  }
}
